(set-logic QF_S)
(declare-fun _var_0xINPUT_168587_() String)
(declare-fun __woorpje_diseq_pref0_() String)
(declare-fun __woorpje_diseq_suf_l0_() String)
(declare-fun __woorpje_diseq_suf_r0_() String)
(assert (=(str.++ _var_0xINPUT_168587_  "")(str.++ __woorpje_diseq_pref0_  "2" __woorpje_diseq_suf_l0_  "")) )
(assert (=(str.++  "IsOAbH2FbR" "")(str.++ __woorpje_diseq_pref0_  "R" __woorpje_diseq_suf_r0_  "")) )
(check-sat)
